40
    82    33    79    67    96     3    16    33    40     6    82    46     7    19    22    48    18    76    59    84    24    59    96     5     2     9    10    61    59    15    59     8    28    23    80     5    71    29    85    12
     3     8     6     8     7     6     1     1     6     4     7     6     3     6     1     7     1     3     7     7     9    10     1     3     8    10     2     1     4     1     3     7     4     6    10     9     1     5     3     8
   756   774   770   620   720   667   808   562   728   743   794   657   817   611   562   599   799   748   517   673   567   749   691   590   554   724   634   790   716   540   780   627   664   556   691   660   622   541   752   503
